(set-option :produce-models true)
(set-logic QF_UF)
(declare-fun p31() Bool)
(declare-fun p5() Bool)
(declare-fun p15() Bool)
(declare-fun p69() Bool)
(declare-fun p49() Bool)
(declare-fun p38() Bool)
(declare-fun p92() Bool)
(declare-fun p84() Bool)
(declare-fun p6() Bool)
(declare-fun p16() Bool)
(declare-fun p26() Bool)
(declare-fun p13() Bool)
(declare-fun p48() Bool)
(declare-fun p91() Bool)
(declare-fun p12() Bool)
(declare-fun p47() Bool)
(declare-fun p29() Bool)
(declare-fun p99() Bool)
(declare-fun p98() Bool)
(declare-fun p35() Bool)
(declare-fun p81() Bool)
(declare-fun p53() Bool)
(declare-fun p64() Bool)
(declare-fun p7() Bool)
(declare-fun p37() Bool)
(declare-fun p95() Bool)
(declare-fun p1() Bool)
(declare-fun p22() Bool)
(declare-fun p51() Bool)
(declare-fun p86() Bool)
(declare-fun p76() Bool)
(declare-fun p14() Bool)
(declare-fun p56() Bool)
(declare-fun p40() Bool)
(declare-fun p57() Bool)
(declare-fun p21() Bool)
(declare-fun p30() Bool)
(declare-fun p77() Bool)
(declare-fun p88() Bool)
(declare-fun p52() Bool)
(declare-fun p32() Bool)
(declare-fun p66() Bool)
(declare-fun p58() Bool)
(declare-fun p43() Bool)
(declare-fun p80() Bool)
(declare-fun p2() Bool)
(declare-fun p33() Bool)
(declare-fun p39() Bool)
(declare-fun p50() Bool)
(declare-fun p93() Bool)
(declare-fun p0() Bool)
(declare-fun p27() Bool)
(declare-fun p23() Bool)
(declare-fun p72() Bool)
(declare-fun p70() Bool)
(declare-fun p87() Bool)
(declare-fun p4() Bool)
(declare-fun p8() Bool)
(declare-fun p82() Bool)
(declare-fun p18() Bool)
(declare-fun p71() Bool)
(declare-fun p79() Bool)
(declare-fun p89() Bool)
(declare-fun p83() Bool)
(declare-fun p68() Bool)
(declare-fun p10() Bool)
(declare-fun p74() Bool)
(declare-fun p65() Bool)
(declare-fun p61() Bool)
(declare-fun p55() Bool)
(declare-fun p90() Bool)
(declare-fun p94() Bool)
(declare-fun p59() Bool)
(declare-fun p73() Bool)
(declare-fun p96() Bool)
(declare-fun p97() Bool)
(declare-fun p41() Bool)
(declare-fun p17() Bool)
(declare-fun p42() Bool)
(declare-fun p34() Bool)
(declare-fun p9() Bool)
(declare-fun p44() Bool)
(declare-fun p54() Bool)
(declare-fun p85() Bool)
(declare-fun p45() Bool)
(declare-fun p67() Bool)
(declare-fun p24() Bool)
(declare-fun p46() Bool)
(declare-fun p11() Bool)
(declare-fun p63() Bool)
(declare-fun p19() Bool)
(declare-fun p28() Bool)
(declare-fun p60() Bool)
(declare-fun p75() Bool)
(declare-fun p3() Bool)
(declare-fun p25() Bool)
(declare-fun p78() Bool)
(declare-fun p36() Bool)
(declare-fun p20() Bool)
(declare-fun p62() Bool)
(assert
(and (or (not p31) p5 p15) (or (not p69) p49 (not p38)) (or (not p92) p84 (not p6)) (or (not p16) (not p26) (not p13)) (or (not p48) (not p91) p12) (or p47 p29 p99) (or p98 p35 (not p81)) (or (not p53) p91 (not p64)) (or (not p7) (not p37) p95) (or (not p1) (not p31) (not p22)) (or p98 p51 p86) (or p35 p13 (not p76)) (or (not p14) p56 (not p40)) (or (not p57) p21 (not p30)) (or p77 p14 (not p92)) (or (not p88) (not p52) p69) (or p32 (not p66) (not p1)) (or (not p58) (not p43) p80) (or (not p2) (not p48) p30) (or (not p2) (not p31) p33) (or (not p13) p39 (not p50)) (or p93 (not p0) p77) (or (not p38) p92 p27) (or (not p23) (not p16) p13) (or p72 (not p5) p70) (or (not p15) (not p23) (not p87)) (or p56 (not p4) p8) (or p35 p6 (not p7)) (or (not p47) (not p5) p82) (or (not p87) (not p23) p52) (or p5 (not p18) p35) (or p71 (not p99) p95) (or p98 p93 (not p31)) (or p79 p89 p83) (or p68 (not p13) p33) (or p32 p31 p8) (or (not p10) (not p0) p74) (or p77 (not p65) (not p61)) (or p55 (not p90) (not p94)) (or (not p59) (not p73) (not p30)) (or p89 p65 (not p73)) (or p40 p16 (not p71)) (or p5 p91 (not p96)) (or (not p97) (not p41) p35) (or p87 (not p17) (not p42)) (or p53 (not p21) p34) (or (not p0) p6 p5) (or (not p93) (not p9) p66) (or p57 p44 (not p35)) (or p93 p73 (not p47)) (or (not p47) (not p4) (not p26)) (or p23 p38 p72) (or p54 p85 (not p44)) (or p56 p45 p67) (or p24 p37 p90) (or (not p56) (not p24) p98) (or p47 p46 p48) (or (not p9) p8 p11) (or (not p35) p63 (not p41)) (or p40 (not p86) p51) (or p19 (not p70) p15) (or p73 p74 (not p21)) (or (not p71) p58 p54) (or (not p29) p85 (not p28)) (or (not p95) (not p60) (not p38)) (or p66 (not p41) (not p35)) (or (not p4) (not p75) (not p35)) (or p68 p59 p2) (or (not p17) p46 p87) (or (not p21) (not p67) p64) (or p44 (not p34) (not p58)) (or p7 p47 (not p41)) (or p85 (not p7) (not p84)) (or p99 p96 p45) (or (not p23) (not p35) (not p81)) (or p66 p67 (not p15)) (or (not p26) p42 (not p90)) (or (not p69) p22 (not p47)) (or p40 p54 p64) (or (not p27) p86 (not p63)) (or (not p94) p46 p10) (or (not p51) (not p47) p47) (or p48 (not p74) (not p49)) (or (not p14) p30 (not p76)) (or (not p75) (not p30) p50) (or (not p12) p31 p51) (or (not p86) (not p35) (not p94)) (or (not p53) p14 p57) (or p66 (not p54) (not p87)) (or p60 p27 p11) (or (not p43) p32 p26) (or p49 p14 (not p27)) (or (not p91) (not p10) p80) (or (not p71) (not p17) (not p40)) (or p5 (not p88) (not p1)) (or (not p38) p96 p59) (or p79 p80 (not p17)) (or p41 p47 (not p74)) (or (not p63) (not p29) p72) (or (not p29) (not p73) p51) (or p51 p93 (not p98)) (or p47 p3 p16) (or p59 (not p74) (not p33)) (or p24 p25 (not p92)) (or p2 (not p81) (not p37)) (or (not p82) p73 (not p86)) (or p11 p39 p42) (or p11 p51 (not p74)) (or p41 (not p91) (not p95)) (or (not p79) p45 (not p54)) (or (not p46) p40 (not p82)) (or (not p86) p82 (not p31)) (or (not p72) (not p67) (not p86)) (or (not p23) (not p67) (not p73)) (or p59 (not p83) (not p97)) (or p31 (not p78) (not p65)) (or (not p12) p95 p21) (or p0 (not p65) p29) (or (not p73) (not p48) (not p83)) (or (not p82) (not p3) (not p51)) (or p84 p17 (not p6)) (or (not p93) p80 (not p56)) (or (not p78) (not p78) p88) (or p44 (not p37) (not p31)) (or (not p89) (not p16) (not p73)) (or (not p60) p87 p72) (or p19 (not p18) p52) (or p66 p4 p3) (or (not p30) p26 p94) (or (not p10) p61 p69) (or (not p57) p8 p70) (or p22 p30 (not p47)) (or (not p19) (not p70) (not p32)) (or (not p92) (not p90) p64) (or p21 p94 (not p64)) (or (not p60) p15 p43) (or (not p57) (not p24) p93) (or p52 p37 p1) (or p25 (not p54) p53) (or (not p31) p32 p6) (or p30 p76 p18) (or (not p66) (not p13) (not p86)) (or p22 p21 (not p6)) (or (not p14) (not p86) (not p42)) (or (not p18) (not p1) (not p19)) (or (not p38) p82 (not p3)) (or (not p67) p87 p59) (or (not p99) p6 p78) (or (not p73) (not p39) p37) (or (not p28) p51 p14) (or (not p49) (not p22) p78) (or (not p39) (not p54) (not p67)) (or p30 (not p87) (not p89)) (or (not p8) (not p91) (not p13)) (or p54 (not p97) p83) (or (not p16) (not p35) (not p91)) (or p59 (not p36) p37) (or p31 p17 (not p42)) (or (not p12) p81 (not p7)) (or p20 p81 (not p5)) (or p51 p42 (not p90)) (or p39 p4 p14) (or (not p42) p55 p71) (or p92 p49 (not p25)) (or (not p92) p36 p88) (or p31 (not p23) p17) (or (not p58) (not p66) p65) (or (not p33) p65 p11) (or (not p93) p39 (not p22)) (or p18 (not p2) (not p71)) (or (not p2) p93 (not p54)) (or (not p58) (not p75) p92) (or (not p23) p50 p94) (or p54 p55 (not p81)) (or p92 (not p26) p12) (or (not p7) (not p84) p41) (or (not p37) p66 (not p98)) (or p68 (not p20) (not p47)) (or p9 (not p81) p79) (or (not p25) (not p68) (not p17)) (or (not p87) p26 p93) (or (not p80) p30 (not p6)) (or p90 p79 p30) (or (not p40) (not p55) (not p97)) (or p80 p60 (not p52)) (or p36 (not p48) p53) (or p82 (not p6) (not p74)) (or p78 (not p42) (not p55)) (or (not p75) p18 p89) (or p15 p9 (not p81)) (or p66 p62 p43) (or (not p62) p56 p20) (or (not p87) p80 p33) (or p56 (not p72) (not p91)) (or p51 p27 (not p1)) (or (not p6) p15 (not p59)) (or p60 p16 p99) (or p35 p91 (not p15)) (or (not p97) (not p70) p91) (or p77 p32 p15) (or p10 p40 p69) (or (not p4) p46 p34) (or (not p28) (not p83) (not p19)) (or (not p93) p60 p8) (or (not p50) (not p92) (not p48)) (or p39 (not p82) p12) (or p96 (not p73) p40) (or (not p68) p29 p51) (or (not p20) p19 (not p13)) (or (not p21) (not p74) p28) (or (not p80) p65 p36) (or p74 p34 (not p77)) (or p56 (not p9) p2) (or (not p13) (not p14) (not p17)) (or p27 p37 (not p23)) (or p97 (not p50) (not p54)) (or p41 p19 p87) (or (not p2) (not p86) p30) (or (not p15) (not p41) p47) (or (not p89) p24 p10) (or p47 (not p83) p64) (or p53 p98 (not p62)) (or (not p58) (not p99) p43) (or p15 p83 p68) (or (not p53) p15 p80) (or (not p91) p65 p11) (or p7 p39 p77) (or p16 (not p20) p23) (or (not p86) (not p48) (not p44)) (or (not p26) p57 p13) (or p15 (not p7) (not p27)) (or (not p26) p31 (not p60)) (or (not p46) (not p29) (not p79)) (or (not p37) (not p22) p16) (or p21 (not p69) p30) (or p23 p46 p11) (or (not p37) p15 p71) (or (not p81) p50 p62) (or (not p89) p52 p26) (or (not p55) (not p46) p13) (or p28 p0 (not p93)) (or p88 (not p66) p90) (or p16 (not p20) (not p4)) (or (not p37) (not p24) (not p41)) (or (not p53) p98 (not p91)) (or (not p13) p1 (not p90)) (or (not p77) p18 (not p18)) (or (not p41) p31 (not p2)) (or (not p5) (not p53) p26) (or p54 (not p35) p39) (or p4 p65 p12) (or (not p57) p93 (not p2)) (or p65 p6 p30) (or (not p66) p9 (not p17)) (or (not p71) (not p78) (not p15)) (or p74 (not p72) (not p22)) (or (not p78) p57 p57) (or p70 p91 (not p2)) (or p58 (not p0) (not p74)) (or p79 p52 p51) (or (not p61) (not p46) (not p20)) (or (not p19) p73 (not p16)) (or p68 p47 p55) (or p37 (not p14) (not p13)) (or p6 p27 (not p14)) (or (not p66) (not p82) (not p95)) (or (not p93) p7 (not p64)) (or (not p85) (not p34) p6) (or p26 p21 p48) (or p65 (not p80) p88) (or (not p36) (not p53) p51) (or (not p30) p26 p58) (or (not p41) (not p85) p87) (or (not p85) (not p52) (not p61)) (or p1 (not p58) (not p9)) (or (not p19) p67 (not p6)) (or p62 p47 p80) (or p6 (not p57) p58) (or p88 (not p88) p25) (or p34 p51 p27) (or (not p29) p58 p5) (or (not p39) (not p85) p49) (or (not p65) (not p26) p26) (or p47 p7 (not p21)) (or (not p75) p39 (not p57)) (or p35 p25 p81) (or p72 (not p69) (not p55)) (or p53 (not p22) (not p2)) (or p1 (not p72) (not p13)) (or (not p21) p46 p96) (or p96 p9 (not p11)) (or (not p6) (not p78) (not p21)) (or p99 p81 (not p47)) (or (not p43) p32 (not p64)) (or p44 (not p43) (not p62)) (or (not p62) p73 p15) (or p13 (not p62) (not p8)) (or (not p99) p50 p13) (or (not p62) (not p43) p17) (or (not p46) (not p64) p80) (or (not p24) (not p28) p99) (or p54 p48 p42) (or (not p93) (not p38) p2) (or (not p47) (not p45) p75) (or p46 p57 p41) (or (not p70) (not p34) (not p73)) (or (not p28) (not p2) p28) (or (not p66) (not p79) (not p53)) (or p12 (not p92) p87) (or p67 (not p2) (not p96)) (or (not p68) (not p29) (not p42)) (or (not p99) (not p1) p44) (or (not p69) p62 p92) (or (not p62) (not p6) p66) (or p54 p29 (not p88)) (or (not p39) (not p4) (not p49)) (or p56 (not p43) (not p26)) (or (not p43) p23 p99) (or (not p36) (not p42) (not p76)) (or (not p42) p73 (not p50)) (or (not p87) (not p68) p1) (or p93 (not p34) p25) (or (not p50) (not p99) p27) (or p61 p22 (not p26)) (or (not p91) (not p26) (not p96)) (or p24 p77 (not p88)) (or p47 p23 (not p4)) (or (not p65) (not p16) p44) (or (not p44) p30 p99) (or p19 (not p86) (not p69)) (or (not p82) (not p96) p72) (or p43 (not p43) (not p80)) (or (not p79) (not p43) p51) (or p15 (not p20) p39) (or (not p88) p1 (not p68)) (or p76 (not p47) p46) (or (not p23) p33 p36) (or p29 p83 (not p86)) (or (not p75) p21 p48) (or (not p65) p92 (not p68)) (or p5 p23 (not p5)) (or p28 (not p67) (not p73)) (or p44 p88 (not p53)) (or p75 p4 p2) (or p88 (not p13) p79) (or (not p39) p48 (not p24)) (or p48 p94 (not p36)) (or p83 p60 (not p72)) (or (not p27) p41 (not p28)) (or p54 p61 p91) (or p36 (not p47) (not p37)) (or (not p66) p1 p92) (or p95 (not p59) p79) (or (not p6) p3 p86) (or p11 p74 p23) (or p89 (not p34) p66) (or (not p13) p68 (not p15)) (or (not p88) p25 (not p53)) (or (not p92) p31 p29) (or p62 p39 p19) (or p86 p14 p97) (or (not p63) p38 p63) (or (not p89) (not p72) p47) (or p35 (not p16) (not p86)) (or (not p34) p59 (not p52)) (or (not p98) (not p34) (not p80)) (or p36 (not p12) p96) (or (not p94) p92 (not p42)) (or (not p97) (not p29) p81) (or p27 (not p75) p85) (or (not p65) (not p82) p87) (or p65 (not p49) p8) (or p98 p50 (not p5)) (or (not p1) p88 (not p81)) (or p66 p21 p36) (or (not p75) p74 (not p63)) (or (not p82) (not p14) (not p6)) (or p29 (not p72) (not p49)) (or p89 (not p40) p0) (or (not p94) p93 (not p19)) (or (not p58) p45 (not p60)) (or p4 p34 p28) (or p80 (not p30) (not p90)) (or (not p74) p90 p36) (or (not p74) p91 p97) (or (not p40) p52 p73) (or (not p31) (not p85) p59) (or p10 p96 (not p93)) (or p17 p83 (not p1)) (or (not p13) (not p79) p23) (or (not p96) (not p19) p98) (or (not p33) p43 p29) (or p93 p71 p33) (or p55 p65 p68) (or (not p9) p27 (not p52)) (or (not p58) (not p23) (not p97)) (or p7 (not p42) (not p55)) (or p27 (not p30) p21) (or p23 p10 p30) (or (not p49) p45 (not p28)) (or p8 (not p9) (not p34)) (or p31 (not p69) p69) (or (not p11) (not p50) (not p43)) (or (not p0) p83 (not p5)) (or (not p32) p25 p57) (or (not p38) p26 (not p84)) (or (not p96) (not p59) p21) (or (not p59) (not p78) p71) (or p68 (not p6) p93) (or (not p53) (not p11) (not p59)) (or p40 (not p8) p45) (or p65 (not p37) (not p86)) (or p92 (not p19) (not p9)) (or p65 (not p39) p23) (or (not p12) (not p82) p92) (or p96 p97 p41) (or (not p95) p90 (not p73)) (or (not p94) (not p3) p8) (or (not p59) p88 p2) (or p23 p81 p11))
)
(check-sat)
(get-model)
